// <id, capacity (cpu, memory), features (speed), state (time_to_turn_on, time_to_turn_off, load (cpu_load, memory_load), state)>

physical_machines = {
  <0, <56, 128>, <1.0>, <53.2, 80.5, <0.0, 0.0>, 0>>,
  <1, <56, 64>, <1.0>, <91.1, 41.7, <0.0, 0.0>, 0>>,
  <2, <56, 128>, <1.0>, <54.1, 13.1, <0.0, 0.0>, 0>>,
  <3, <128, 256>, <1.0>, <88.9, 13.2, <0.0, 0.0>, 0>>,
  <4, <48, 256>, <1.0>, <81.1, 20.1, <0.0, 0.0>, 0>>,
  <5, <64, 256>, <1.0>, <86.9, 47.8, <0.0, 0.0>, 0>>,
  <6, <32, 64>, <1.0>, <86.3, 84.3, <0.0, 0.0>, 0>>,
  <7, <128, 256>, <1.0>, <47.5, 16.7, <0.0, 0.0>, 0>>,
  <8, <32, 256>, <1.0>, <15.4, 70.3, <0.0, 0.0>, 0>>,
  <9, <32, 256>, <1.0>, <82.9, 55.0, <0.0, 0.0>, 0>>,
  <10, <64, 64>, <1.0>, <21.2, 70.3, <0.0, 0.0>, 0>>,
  <11, <48, 128>, <1.0>, <86.6, 19.7, <0.0, 0.0>, 0>>,
  <12, <32, 256>, <1.0>, <98.6, 25.2, <0.0, 0.0>, 0>>,
  <13, <32, 64>, <1.0>, <46.1, 88.2, <0.0, 0.0>, 0>>,
  <14, <40, 128>, <1.0>, <118.2, 46.3, <0.0, 0.0>, 0>>,
  <15, <48, 64>, <1.0>, <61.4, 68.4, <0.0, 0.0>, 0>>,
  <16, <128, 256>, <1.0>, <46.2, 65.3, <0.0, 0.0>, 0>>,
  <17, <48, 64>, <1.0>, <103.0, 71.3, <0.0, 0.0>, 0>>,
  <18, <40, 256>, <1.0>, <71.7, 22.1, <0.0, 0.0>, 0>>,
  <19, <128, 128>, <1.0>, <107.5, 81.7, <0.0, 0.0>, 0>>,
  <20, <64, 64>, <1.0>, <93.1, 27.4, <0.0, 0.0>, 0>>,
  <21, <128, 64>, <1.0>, <114.5, 31.0, <0.0, 0.0>, 0>>,
  <22, <48, 128>, <1.0>, <43.0, 84.5, <0.0, 0.0>, 0>>,
  <23, <48, 256>, <1.0>, <31.0, 62.7, <0.0, 0.0>, 0>>,
  <24, <48, 64>, <1.0>, <43.1, 36.7, <0.0, 0.0>, 0>>,
  <25, <56, 128>, <1.0>, <98.2, 28.9, <0.0, 0.0>, 0>>,
  <26, <48, 64>, <1.0>, <34.7, 80.8, <0.0, 0.0>, 0>>,
  <27, <40, 256>, <1.0>, <109.5, 27.0, <0.0, 0.0>, 0>>,
  <28, <64, 64>, <1.0>, <50.9, 63.8, <0.0, 0.0>, 0>>,
  <29, <56, 64>, <1.0>, <70.2, 42.3, <0.0, 0.0>, 0>>,
  <30, <128, 128>, <1.0>, <26.4, 50.8, <0.0, 0.0>, 0>>,
  <31, <48, 256>, <1.0>, <68.4, 15.3, <0.0, 0.0>, 0>>,
  <32, <128, 256>, <1.0>, <61.1, 42.5, <0.0, 0.0>, 0>>,
  <33, <128, 256>, <1.0>, <89.1, 62.9, <0.0, 0.0>, 0>>,
  <34, <64, 64>, <1.0>, <68.1, 30.3, <0.0, 0.0>, 0>>,
  <35, <128, 256>, <1.0>, <52.8, 64.8, <0.0, 0.0>, 0>>,
  <36, <56, 64>, <1.0>, <101.7, 23.4, <0.0, 0.0>, 0>>,
  <37, <56, 128>, <1.0>, <41.7, 35.5, <0.0, 0.0>, 0>>,
  <38, <48, 128>, <1.0>, <24.9, 48.3, <0.0, 0.0>, 0>>,
  <39, <128, 64>, <1.0>, <48.4, 35.4, <0.0, 0.0>, 0>>
};

nb_points = 11;

power_function = [
  [<0.0, 128.26>, <0.1, 189.83>, <0.2, 214.93>, <0.3, 237.8>, <0.4, 262.47>, <0.5, 288.07>, <0.6, 317.19>, <0.7, 349.81>, <0.8, 389.12>, <0.9, 450.49>, <1.0, 490.25>],
  [<0.0, 122.44>, <0.1, 181.54>, <0.2, 205.9>, <0.3, 227.97>, <0.4, 251.85>, <0.5, 275.94>, <0.6, 302.95>, <0.7, 332.58>, <0.8, 366.51>, <0.9, 421.08>, <1.0, 457.36>],
  [<0.0, 128.26>, <0.1, 189.83>, <0.2, 214.93>, <0.3, 237.8>, <0.4, 262.47>, <0.5, 288.07>, <0.6, 317.19>, <0.7, 349.81>, <0.8, 389.12>, <0.9, 450.49>, <1.0, 490.25>],
  [<0.0, 219.77>, <0.1, 342.67>, <0.2, 394.64>, <0.3, 443.77>, <0.4, 494.78>, <0.5, 548.25>, <0.6, 611.03>, <0.7, 684.35>, <0.8, 771.49>, <0.9, 906.74>, <1.0, 994.98>],
  [<0.0, 131.02>, <0.1, 191.27>, <0.2, 215.03>, <0.3, 236.76>, <0.4, 260.26>, <0.5, 286.11>, <0.6, 316.17>, <0.7, 350.91>, <0.8, 396.89>, <0.9, 465.16>, <1.0, 507.27>],
  [<0.0, 148.77>, <0.1, 221.55>, <0.2, 250.96>, <0.3, 278.16>, <0.4, 307.17>, <0.5, 338.54>, <0.6, 375.14>, <0.7, 417.6>, <0.8, 471.81>, <0.9, 553.47>, <1.0, 604.81>],
  [<0.0, 95.81>, <0.1, 136.12>, <0.2, 152.02>, <0.3, 165.87>, <0.4, 181.5>, <0.5, 197.3>, <0.6, 214.49>, <0.7, 232.55>, <0.8, 254.13>, <0.9, 288.61>, <1.0, 311.04>],
  [<0.0, 219.77>, <0.1, 342.67>, <0.2, 394.64>, <0.3, 443.77>, <0.4, 494.78>, <0.5, 548.25>, <0.6, 611.03>, <0.7, 684.35>, <0.8, 771.49>, <0.9, 906.74>, <1.0, 994.98>],
  [<0.0, 113.27>, <0.1, 160.99>, <0.2, 179.11>, <0.3, 195.36>, <0.4, 213.36>, <0.5, 233.68>, <0.6, 257.2>, <0.7, 284.23>, <0.8, 321.97>, <0.9, 376.84>, <1.0, 409.73>],
  [<0.0, 113.27>, <0.1, 160.99>, <0.2, 179.11>, <0.3, 195.36>, <0.4, 213.36>, <0.5, 233.68>, <0.6, 257.2>, <0.7, 284.23>, <0.8, 321.97>, <0.9, 376.84>, <1.0, 409.73>],
  [<0.0, 131.31>, <0.1, 196.67>, <0.2, 223.86>, <0.3, 248.67>, <0.4, 275.3>, <0.5, 302.16>, <0.6, 332.43>, <0.7, 365.92>, <0.8, 403.97>, <0.9, 465.24>, <1.0, 506.13>],
  [<0.0, 119.38>, <0.1, 174.69>, <0.2, 196.97>, <0.3, 217.1>, <0.4, 239.02>, <0.5, 261.85>, <0.6, 287.7>, <0.7, 316.46>, <0.8, 351.66>, <0.9, 406.33>, <1.0, 441.48>],
  [<0.0, 113.27>, <0.1, 160.99>, <0.2, 179.11>, <0.3, 195.36>, <0.4, 213.36>, <0.5, 233.68>, <0.6, 257.2>, <0.7, 284.23>, <0.8, 321.97>, <0.9, 376.84>, <1.0, 409.73>],
  [<0.0, 95.81>, <0.1, 136.12>, <0.2, 152.02>, <0.3, 165.87>, <0.4, 181.5>, <0.5, 197.3>, <0.6, 214.49>, <0.7, 232.55>, <0.8, 254.13>, <0.9, 288.61>, <1.0, 311.04>],
  [<0.0, 110.51>, <0.1, 159.55>, <0.2, 179.01>, <0.3, 196.4>, <0.4, 215.57>, <0.5, 235.64>, <0.6, 258.21>, <0.7, 283.12>, <0.8, 314.2>, <0.9, 362.18>, <1.0, 392.71>],
  [<0.0, 113.56>, <0.1, 166.4>, <0.2, 187.94>, <0.3, 207.27>, <0.4, 228.4>, <0.5, 249.73>, <0.6, 273.46>, <0.7, 299.23>, <0.8, 329.05>, <0.9, 376.92>, <1.0, 408.59>],
  [<0.0, 219.77>, <0.1, 342.67>, <0.2, 394.64>, <0.3, 443.77>, <0.4, 494.78>, <0.5, 548.25>, <0.6, 611.03>, <0.7, 684.35>, <0.8, 771.49>, <0.9, 906.74>, <1.0, 994.98>],
  [<0.0, 113.56>, <0.1, 166.4>, <0.2, 187.94>, <0.3, 207.27>, <0.4, 228.4>, <0.5, 249.73>, <0.6, 273.46>, <0.7, 299.23>, <0.8, 329.05>, <0.9, 376.92>, <1.0, 408.59>],
  [<0.0, 122.15>, <0.1, 176.13>, <0.2, 197.07>, <0.3, 216.06>, <0.4, 236.81>, <0.5, 259.89>, <0.6, 286.69>, <0.7, 317.57>, <0.8, 359.43>, <0.9, 421.0>, <1.0, 458.5>],
  [<0.0, 208.13>, <0.1, 326.08>, <0.2, 376.58>, <0.3, 424.11>, <0.4, 473.54>, <0.5, 524.0>, <0.6, 582.55>, <0.7, 649.9>, <0.8, 726.26>, <0.9, 847.92>, <1.0, 929.2>],
  [<0.0, 131.31>, <0.1, 196.67>, <0.2, 223.86>, <0.3, 248.67>, <0.4, 275.3>, <0.5, 302.16>, <0.6, 332.43>, <0.7, 365.92>, <0.8, 403.97>, <0.9, 465.24>, <1.0, 506.13>],
  [<0.0, 202.31>, <0.1, 317.79>, <0.2, 367.54>, <0.3, 414.28>, <0.4, 462.92>, <0.5, 511.87>, <0.6, 568.32>, <0.7, 632.67>, <0.8, 703.64>, <0.9, 818.51>, <1.0, 896.3>],
  [<0.0, 119.38>, <0.1, 174.69>, <0.2, 196.97>, <0.3, 217.1>, <0.4, 239.02>, <0.5, 261.85>, <0.6, 287.7>, <0.7, 316.46>, <0.8, 351.66>, <0.9, 406.33>, <1.0, 441.48>],
  [<0.0, 131.02>, <0.1, 191.27>, <0.2, 215.03>, <0.3, 236.76>, <0.4, 260.26>, <0.5, 286.11>, <0.6, 316.17>, <0.7, 350.91>, <0.8, 396.89>, <0.9, 465.16>, <1.0, 507.27>],
  [<0.0, 113.56>, <0.1, 166.4>, <0.2, 187.94>, <0.3, 207.27>, <0.4, 228.4>, <0.5, 249.73>, <0.6, 273.46>, <0.7, 299.23>, <0.8, 329.05>, <0.9, 376.92>, <1.0, 408.59>],
  [<0.0, 128.26>, <0.1, 189.83>, <0.2, 214.93>, <0.3, 237.8>, <0.4, 262.47>, <0.5, 288.07>, <0.6, 317.19>, <0.7, 349.81>, <0.8, 389.12>, <0.9, 450.49>, <1.0, 490.25>],
  [<0.0, 113.56>, <0.1, 166.4>, <0.2, 187.94>, <0.3, 207.27>, <0.4, 228.4>, <0.5, 249.73>, <0.6, 273.46>, <0.7, 299.23>, <0.8, 329.05>, <0.9, 376.92>, <1.0, 408.59>],
  [<0.0, 122.15>, <0.1, 176.13>, <0.2, 197.07>, <0.3, 216.06>, <0.4, 236.81>, <0.5, 259.89>, <0.6, 286.69>, <0.7, 317.57>, <0.8, 359.43>, <0.9, 421.0>, <1.0, 458.5>],
  [<0.0, 131.31>, <0.1, 196.67>, <0.2, 223.86>, <0.3, 248.67>, <0.4, 275.3>, <0.5, 302.16>, <0.6, 332.43>, <0.7, 365.92>, <0.8, 403.97>, <0.9, 465.24>, <1.0, 506.13>],
  [<0.0, 122.44>, <0.1, 181.54>, <0.2, 205.9>, <0.3, 227.97>, <0.4, 251.85>, <0.5, 275.94>, <0.6, 302.95>, <0.7, 332.58>, <0.8, 366.51>, <0.9, 421.08>, <1.0, 457.36>],
  [<0.0, 208.13>, <0.1, 326.08>, <0.2, 376.58>, <0.3, 424.11>, <0.4, 473.54>, <0.5, 524.0>, <0.6, 582.55>, <0.7, 649.9>, <0.8, 726.26>, <0.9, 847.92>, <1.0, 929.2>],
  [<0.0, 131.02>, <0.1, 191.27>, <0.2, 215.03>, <0.3, 236.76>, <0.4, 260.26>, <0.5, 286.11>, <0.6, 316.17>, <0.7, 350.91>, <0.8, 396.89>, <0.9, 465.16>, <1.0, 507.27>],
  [<0.0, 219.77>, <0.1, 342.67>, <0.2, 394.64>, <0.3, 443.77>, <0.4, 494.78>, <0.5, 548.25>, <0.6, 611.03>, <0.7, 684.35>, <0.8, 771.49>, <0.9, 906.74>, <1.0, 994.98>],
  [<0.0, 219.77>, <0.1, 342.67>, <0.2, 394.64>, <0.3, 443.77>, <0.4, 494.78>, <0.5, 548.25>, <0.6, 611.03>, <0.7, 684.35>, <0.8, 771.49>, <0.9, 906.74>, <1.0, 994.98>],
  [<0.0, 131.31>, <0.1, 196.67>, <0.2, 223.86>, <0.3, 248.67>, <0.4, 275.3>, <0.5, 302.16>, <0.6, 332.43>, <0.7, 365.92>, <0.8, 403.97>, <0.9, 465.24>, <1.0, 506.13>],
  [<0.0, 219.77>, <0.1, 342.67>, <0.2, 394.64>, <0.3, 443.77>, <0.4, 494.78>, <0.5, 548.25>, <0.6, 611.03>, <0.7, 684.35>, <0.8, 771.49>, <0.9, 906.74>, <1.0, 994.98>],
  [<0.0, 122.44>, <0.1, 181.54>, <0.2, 205.9>, <0.3, 227.97>, <0.4, 251.85>, <0.5, 275.94>, <0.6, 302.95>, <0.7, 332.58>, <0.8, 366.51>, <0.9, 421.08>, <1.0, 457.36>],
  [<0.0, 128.26>, <0.1, 189.83>, <0.2, 214.93>, <0.3, 237.8>, <0.4, 262.47>, <0.5, 288.07>, <0.6, 317.19>, <0.7, 349.81>, <0.8, 389.12>, <0.9, 450.49>, <1.0, 490.25>],
  [<0.0, 119.38>, <0.1, 174.69>, <0.2, 196.97>, <0.3, 217.1>, <0.4, 239.02>, <0.5, 261.85>, <0.6, 287.7>, <0.7, 316.46>, <0.8, 351.66>, <0.9, 406.33>, <1.0, 441.48>],
  [<0.0, 202.31>, <0.1, 317.79>, <0.2, 367.54>, <0.3, 414.28>, <0.4, 462.92>, <0.5, 511.87>, <0.6, 568.32>, <0.7, 632.67>, <0.8, 703.64>, <0.9, 818.51>, <1.0, 896.3>]
];